10  6   1.15
6   1   1   333 1   2   991 1   3   996 1   4   123 2   5   145 4   145 1   6   234 
6   1   1   333 1   2   111 1   3   663 1   4   456 1   5   785 1   6   532 
6   2   1   252 6   252 1   2   222 1   3   222 1   4   789 2   5   214 6   214 1   6   586 
6   1   1   222 1   2   204 1   3   114 2   4   876 1   876 1   5   752 1   6   532 
6   1   1   255 1   2   477 1   3   123 2   4   543 2   543 1   5   143 1   6   142 
6   2   1   555 4   555 1   2   566 1   3   456 1   4   210 1   5   698 1   6   573 
6   1   1   558 1   2   899 1   3   789 1   4   124 1   5   532 2   6   12  5   12  
6   1   1   888 1   2   965 2   3   876 5   876 1   4   537 1   5   145 1   6   14  
6   2   1   889 3   889 1   2   588 2   3   543 4   543 1   4   854 1   5   247 1   6   527 
6   1   1   999 1   2   889 1   3   210 1   4   632 1   5   451 1   6   856 
